c Sudoku solution
p cnf 729 0
169 0
248 0
279 0
296 0
326 0
331 0
319 0
383 0
467 0
534 0
573 0
587 0
639 0
654 0
661 0
675 0
692 0
752 0
797 0
813 0
993 0
871 0
895 0
918 0
945 0
951 0
141 0
156 0
281 0
185 0
974 0
966 0
484 0
982 0
937 0
929 0
438 0
476 0
688 0
128 0
133 0
194 0
398 0
778 0
112 0
235 0
177 0
372 0
262 0
253 0
832 0
824 0
868 0
886 0
789 0
214 0
227 0
617 0
516 0
623 0
646 0
736 0
443 0
422 0
542 0
744 0
763 0
347 0
364 0
355 0
849 0
857 0
459 0
415 0
521 0
491 0
599 0
711 0
725 0
558 0
565 0
